NAME    mp_h5_od_d0.85                                                                                                    
ROWS                                                                                                                      
 N      total_decay_xp                                                                                                    
 E      initial_itb                                                                                                       
 E      initial_ft                                                                                                        
 E      squad_count[38]                                                                                                   
 E      squad_fh_count[38]                                                                                                
 E      lineup_count[38]                                                                                                  
 E      bench_gk[38]                                                                                                      
 E      bench_count[1,38]                                                                                                 
 E      bench_count[2,38]                                                                                                 
 E      bench_count[3,38]                                                                                                 
 E      captain_count[38]                                                                                                 
 E      vicecap_count[38]                                                                                                 
 G      valid_formation_lb[1,38]                                                                                          
 G      valid_formation_lb[2,38]                                                                                          
 G      valid_formation_lb[3,38]                                                                                          
 G      valid_formation_lb[4,38]                                                                                          
 L      valid_formation_ub[1,38]                                                                                          
 L      valid_formation_ub[2,38]                                                                                          
 L      valid_formation_ub[3,38]                                                                                          
 L      valid_formation_ub[4,38]                                                                                          
 E      valid_squad[1,38]                                                                                                 
 E      valid_squad[2,38]                                                                                                 
 E      valid_squad[3,38]                                                                                                 
 E      valid_squad[4,38]                                                                                                 
 E      valid_squad_fh[1,38]                                                                                              
 E      valid_squad_fh[2,38]                                                                                              
 E      valid_squad_fh[3,38]                                                                                              
 E      valid_squad_fh[4,38]                                                                                              
 L      team_limit['Arsenal',37]                                                                                          
 L      team_limit['Arsenal',38]                                                                                          
 L      team_limit['Aston_Villa',37]                                                                                      
 L      team_limit['Aston_Villa',38]                                                                                      
 L      team_limit['Burnley',37]                                                                                          
 L      team_limit['Burnley',38]                                                                                          
 L      team_limit['Bournemouth',37]                                                                                      
 L      team_limit['Bournemouth',38]                                                                                      
 L      team_limit['Brentford',37]                                                                                        
 L      team_limit['Brentford',38]                                                                                        
 L      team_limit['Brighton',37]                                                                                         
 L      team_limit['Brighton',38]                                                                                         
 L      team_limit['Chelsea',37]                                                                                          
 L      team_limit['Chelsea',38]                                                                                          
 L      team_limit['Crystal_Palace',37]                                                                                   
 L      team_limit['Crystal_Palace',38]                                                                                   
 L      team_limit['Everton',37]                                                                                          
 L      team_limit['Everton',38]                                                                                          
 L      team_limit['Fulham',37]                                                                                           
 L      team_limit['Fulham',38]                                                                                           
 L      team_limit['Leeds',37]                                                                                            
 L      team_limit['Leeds',38]                                                                                            
 L      team_limit['Liverpool',37]                                                                                        
 L      team_limit['Liverpool',38]                                                                                        
 L      team_limit['Man_City',37]                                                                                         
 L      team_limit['Man_City',38]                                                                                         
 L      team_limit['Man_Utd',37]                                                                                          
 L      team_limit['Man_Utd',38]                                                                                          
 L      team_limit['Newcastle',37]                                                                                        
 L      team_limit['Newcastle',38]                                                                                        
 L      team_limit['Nott_m_Forest',37]                                                                                    
 L      team_limit['Nott_m_Forest',38]                                                                                    
 L      team_limit['Sunderland',37]                                                                                       
 L      team_limit['Sunderland',38]                                                                                       
 L      team_limit['Spurs',37]                                                                                            
 L      team_limit['Spurs',38]                                                                                            
 L      team_limit['West_Ham',37]                                                                                         
 L      team_limit['West_Ham',38]                                                                                         
 L      team_limit['Wolves',37]                                                                                           
 L      team_limit['Wolves',38]                                                                                           
 L      team_limit_fh['Arsenal',38]                                                                                       
 L      team_limit_fh['Aston_Villa',38]                                                                                   
 L      team_limit_fh['Burnley',38]                                                                                       
 L      team_limit_fh['Bournemouth',38]                                                                                   
 L      team_limit_fh['Brentford',38]                                                                                     
 L      team_limit_fh['Brighton',38]                                                                                      
 L      team_limit_fh['Chelsea',38]                                                                                       
 L      team_limit_fh['Crystal_Palace',38]                                                                                
 L      team_limit_fh['Everton',38]                                                                                       
 L      team_limit_fh['Fulham',38]                                                                                        
 L      team_limit_fh['Leeds',38]                                                                                         
 L      team_limit_fh['Liverpool',38]                                                                                     
 L      team_limit_fh['Man_City',38]                                                                                      
 L      team_limit_fh['Man_Utd',38]                                                                                       
 L      team_limit_fh['Newcastle',38]                                                                                     
 L      team_limit_fh['Nott_m_Forest',38]                                                                                 
 L      team_limit_fh['Sunderland',38]                                                                                    
 L      team_limit_fh['Spurs',38]                                                                                         
 L      team_limit_fh['West_Ham',38]                                                                                      
 L      team_limit_fh['Wolves',38]                                                                                        
 E      cont_budget[38]                                                                                                   
 G      fh_budget[38]                                                                                                     
 G      ft_above_ub_lb[38]                                                                                                
 L      ft_above_ub_ub[38]                                                                                                
 L      ft_below_lb_ub[38]                                                                                                
 G      ft_below_lb_lb[38]                                                                                                
 E      ftsc1[38]                                                                                                         
 E      ftsc2[38]                                                                                                         
 G      pen_transfer_rel[38]                                                                                              
 L      single_chip[38]                                                                                                   
 L      use_wc_limit                                                                                                      
 L      use_bb_limit                                                                                                      
 L      use_fh_limit                                                                                                      
 L      use_tc_limit                                                                                                      
 G      trc_lb[38]                                                                                                        
 L      trc_ub1[38]                                                                                                       
 L      trc_ub2[38]                                                                                                       
 L      gw_hit_lim[38]                                                                                                    
COLUMNS                                                                                                                   
        itb[37]                            initial_itb                          1.00 cont_budget[38]                  -1.0
        itb[37]                            fh_budget[38]                        1.00                                      
        itb[38]                            total_decay_xp                      -0.08 cont_budget[38]                   1.0
        MARK0000                           'MARKER'                                  'INTORG'                             
        ft[37]                             total_decay_xp                       0.00                                      
        ft[38]                             initial_ft                           1.00 ft_above_ub_lb[38]                1.0
        ft[38]                             ft_above_ub_ub[38]                   1.00 ft_below_lb_ub[38]                1.0
        ft[38]                             ft_below_lb_lb[38]                   1.00 ftsc1[38]                         1.0
        ft[38]                             pen_transfer_rel[38]                 1.00                                      
        MARK0001                           'MARKER'                                  'INTEND'                             
        ft_above[38]                       ft_above_ub_lb[38]                 -20.00 ft_above_ub_ub[38]              -20.0
        ft_below[38]                       ft_below_lb_ub[38]                  20.00 ft_below_lb_lb[38]               20.0
        ft_state[38,0]                     total_decay_xp                      -1.50 ftsc2[38]                         1.0
        ft_state[38,1]                     total_decay_xp                      -3.00 ftsc1[38]                        -1.0
        ft_state[38,1]                     ftsc2[38]                            1.00                                      
        ft_state[38,2]                     total_decay_xp                      -4.50 ftsc1[38]                        -2.0
        ft_state[38,2]                     ftsc2[38]                            1.00                                      
        ft_state[38,3]                     total_decay_xp                      -6.00 ftsc1[38]                        -3.0
        ft_state[38,3]                     ftsc2[38]                            1.00                                      
        ft_state[38,4]                     total_decay_xp                      -7.50 ftsc1[38]                        -4.0
        ft_state[38,4]                     ftsc2[38]                            1.00                                      
        ft_state[38,5]                     total_decay_xp                      -9.00 ftsc1[38]                        -5.0
        ft_state[38,5]                     ftsc2[38]                            1.00                                      
        MARK0000                           'MARKER'                                  'INTORG'                             
        pt[38]                             total_decay_xp                       4.00 pen_transfer_rel[38]              1.0
        pt[38]                             gw_hit_lim[38]                       1.00                                      
        MARK0001                           'MARKER'                                  'INTEND'                             
        aux[38]                            total_decay_xp                       0.00                                      
        MARK0000                           'MARKER'                                  'INTORG'                             
        trc[38]                            total_decay_xp                       0.20 ft_above_ub_lb[38]               -1.0
        trc[38]                            ft_above_ub_ub[38]                  -1.00 ft_below_lb_ub[38]               -1.0
        trc[38]                            ft_below_lb_lb[38]                  -1.00 trc_lb[38]                        1.0
        trc[38]                            trc_ub1[38]                          1.00 trc_ub2[38]                       1.0
        MARK0001                           'MARKER'                                  'INTEND'                             
        use_wc[38]                         initial_ft                           0.00 ft_above_ub_lb[38]               -1.0
        use_wc[38]                         ft_above_ub_ub[38]                  -1.00 ft_below_lb_ub[38]               -1.0
        use_wc[38]                         ft_below_lb_lb[38]                  -1.00 pen_transfer_rel[38]             15.0
        use_wc[38]                         single_chip[38]                      1.00 use_wc_limit                      1.0
        use_wc[38]                         trc_lb[38]                          15.00 trc_ub2[38]                      15.0
        use_bb[38]                         lineup_count[38]                    -4.00 bench_gk[38]                      1.0
        use_bb[38]                         bench_count[1,38]                    1.00 bench_count[2,38]                 1.0
        use_bb[38]                         bench_count[3,38]                    1.00 valid_formation_ub[1,38]         -1.0
        use_bb[38]                         valid_formation_ub[2,38]            -1.00 valid_formation_ub[3,38]         -1.0
        use_bb[38]                         valid_formation_ub[4,38]            -1.00 single_chip[38]                   1.0
        use_bb[38]                         use_bb_limit                         1.00                                      
        use_fh[38]                         squad_fh_count[38]                 -15.00 valid_squad_fh[1,38]             -2.0
        use_fh[38]                         valid_squad_fh[2,38]                -5.00 valid_squad_fh[3,38]             -5.0
        use_fh[38]                         valid_squad_fh[4,38]                -3.00 team_limit_fh['Arsenal',38]      -3.0
        use_fh[38]                         team_limit_fh['Aston_Villa',38]     -3.00 team_limit_fh['Burnley',38]      -3.0
        use_fh[38]                         team_limit_fh['Bournemouth',38]     -3.00 team_limit_fh['Brentford',38]    -3.0
        use_fh[38]                         team_limit_fh['Brighton',38]        -3.00 team_limit_fh['Chelsea',38]      -3.0
        use_fh[38]                         team_limit_fh['Crystal_Palace',38]  -3.00 team_limit_fh['Everton',38]      -3.0
        use_fh[38]                         team_limit_fh['Fulham',38]          -3.00 team_limit_fh['Leeds',38]        -3.0
        use_fh[38]                         team_limit_fh['Liverpool',38]       -3.00 team_limit_fh['Man_City',38]     -3.0
        use_fh[38]                         team_limit_fh['Man_Utd',38]         -3.00 team_limit_fh['Newcastle',38]    -3.0
        use_fh[38]                         team_limit_fh['Nott_m_Forest',38]   -3.00 team_limit_fh['Sunderland',38]   -3.0
        use_fh[38]                         team_limit_fh['Spurs',38]           -3.00 team_limit_fh['West_Ham',38]     -3.0
        use_fh[38]                         team_limit_fh['Wolves',38]          -3.00 ft_above_ub_lb[38]               -1.0
        use_fh[38]                         ft_above_ub_ub[38]                  -1.00 ft_below_lb_ub[38]               -1.0
        use_fh[38]                         ft_below_lb_lb[38]                  -1.00 single_chip[38]                   1.0
        use_fh[38]                         use_fh_limit                         1.00                                      
RHS                                                                                                                       
        RHS                                initial_itb                        100.00 initial_ft                        1.0
        RHS                                squad_count[38]                     15.00 lineup_count[38]                 11.0
        RHS                                bench_gk[38]                         1.00 bench_count[1,38]                 1.0
        RHS                                bench_count[2,38]                    1.00 bench_count[3,38]                 1.0
        RHS                                captain_count[38]                    1.00 vicecap_count[38]                 1.0
        RHS                                valid_formation_lb[1,38]             1.00 valid_formation_lb[2,38]          3.0
        RHS                                valid_formation_lb[3,38]             2.00 valid_formation_lb[4,38]          1.0
        RHS                                valid_formation_ub[1,38]             1.00 valid_formation_ub[2,38]          5.0
        RHS                                valid_formation_ub[3,38]             5.00 valid_formation_ub[4,38]          3.0
        RHS                                valid_squad[1,38]                    2.00 valid_squad[2,38]                 5.0
        RHS                                valid_squad[3,38]                    5.00 valid_squad[4,38]                 3.0
        RHS                                team_limit['Arsenal',37]             3.00 team_limit['Arsenal',38]          3.0
        RHS                                team_limit['Aston_Villa',37]         3.00 team_limit['Aston_Villa',38]      3.0
        RHS                                team_limit['Burnley',37]             3.00 team_limit['Burnley',38]          3.0
        RHS                                team_limit['Bournemouth',37]         3.00 team_limit['Bournemouth',38]      3.0
        RHS                                team_limit['Brentford',37]           3.00 team_limit['Brentford',38]        3.0
        RHS                                team_limit['Brighton',37]            3.00 team_limit['Brighton',38]         3.0
        RHS                                team_limit['Chelsea',37]             3.00 team_limit['Chelsea',38]          3.0
        RHS                                team_limit['Crystal_Palace',37]      3.00 team_limit['Crystal_Palace',38]   3.0
        RHS                                team_limit['Everton',37]             3.00 team_limit['Everton',38]          3.0
        RHS                                team_limit['Fulham',37]              3.00 team_limit['Fulham',38]           3.0
        RHS                                team_limit['Leeds',37]               3.00 team_limit['Leeds',38]            3.0
        RHS                                team_limit['Liverpool',37]           3.00 team_limit['Liverpool',38]        3.0
        RHS                                team_limit['Man_City',37]            3.00 team_limit['Man_City',38]         3.0
        RHS                                team_limit['Man_Utd',37]             3.00 team_limit['Man_Utd',38]          3.0
        RHS                                team_limit['Newcastle',37]           3.00 team_limit['Newcastle',38]        3.0
        RHS                                team_limit['Nott_m_Forest',37]       3.00 team_limit['Nott_m_Forest',38]    3.0
        RHS                                team_limit['Sunderland',37]          3.00 team_limit['Sunderland',38]       3.0
        RHS                                team_limit['Spurs',37]               3.00 team_limit['Spurs',38]            3.0
        RHS                                team_limit['West_Ham',37]            3.00 team_limit['West_Ham',38]         3.0
        RHS                                team_limit['Wolves',37]              3.00 team_limit['Wolves',38]           3.0
        RHS                                ft_above_ub_lb[38]                 -15.00 ft_above_ub_ub[38]                4.0
        RHS                                ft_below_lb_ub[38]                  19.00 ftsc2[38]                         1.0
        RHS                                single_chip[38]                      1.00 trc_ub2[38]                      15.0
        RHS                                gw_hit_lim[38]                       1.00                                      
RANGES                                                                                                                    
BOUNDS                                                                                                                    
 LO     BND                                ft[37]                               0.00                                      
 UP     BND                                ft[37]                               5.00                                      
 LO     BND                                ft[38]                               0.00                                      
 UP     BND                                ft[38]                               5.00                                      
 BV     BND                                ft_above[38]                         1.00                                      
 BV     BND                                ft_below[38]                         1.00                                      
 BV     BND                                ft_state[38,0]                       1.00                                      
 BV     BND                                ft_state[38,1]                       1.00                                      
 BV     BND                                ft_state[38,2]                       1.00                                      
 BV     BND                                ft_state[38,3]                       1.00                                      
 BV     BND                                ft_state[38,4]                       1.00                                      
 BV     BND                                ft_state[38,5]                       1.00                                      
 PL     BND                                pt[38]                                                                         
 BV     BND                                aux[38]                              1.00                                      
 LO     BND                                trc[38]                              0.00                                      
 UP     BND                                trc[38]                             15.00                                      
 BV     BND                                use_wc[38]                           1.00                                      
 BV     BND                                use_bb[38]                           1.00                                      
 BV     BND                                use_fh[38]                           1.00                                      
ENDATA                                                                                                                    